; benchmark generated from python API
(set-info :status unknown)
(declare-datatypes ((IntState 0)) (((Mk1 (val1 Int)) (Mk2 (val2 Int)))))
 (declare-fun c_main_~i~6 () Int)
(declare-fun c_main_~j~6 () Int)
(declare-fun c_main_~k~6 () Int)
(assert
 (let (($x11 (<= c_main_~j~6 (+ (* 2 c_main_~i~6) 1))))
 (let (($x70 (<= c_main_~j~6 (+ (* 2 c_main_~i~6) 2))))
 (let (($x61 (<= c_main_~i~6 3)))
 (let (($x8 (exists ((main_~i~6_st IntState) (val!145 Int) )(let ((?x56 (val2 main_~i~6_st)))
 (let (($x69 (<= ?x56 3)))
 (let (($x41 (and (<= c_main_~j~6 (+ (* 2 ?x56) 2)) $x69 (<= ?x56 c_main_~k~6))))
 (let (($x52 (not (= main_~i~6_st (Mk1 val!145)))))
 (and $x52 $x41))))))
 ))
 (let (($x173 (<= c_main_~i~6 2)))
 (let (($x167 (exists ((v_nnf_48 Int) )(let (($x77 (<= c_main_~j~6 (+ (* 2 v_nnf_48) 2))))
 (let (($x93 (<= v_nnf_48 3)))
 (and (<= (+ v_nnf_48 3) c_main_~k~6) $x93 $x77))))
 ))
 (and (and $x173 $x167 $x61 $x70 $x11) (not (and $x173 $x8 $x61 $x70 $x11))))))))))
(check-sat)
